40 1 3
665 667 830 415 869 643 4 883 734 68 1 780 389 535 283 49 579 31 804 252 115 334 362 710 454 836 566 42 561 356 604 226 23 433 641 891 75 644 774 808 
712 775 588 100 309 871 149 888 901 952 139 15 285 501 724 739 337 290 781 898 646 384 123 668 816 764 559 891 408 333 699 120 108 286 219 416 157 368 303 57 
320 442 72 605 942 796 343 278 86 123 175 731 506 298 399 322 62 958 212 469 291 910 588 398 196 807 814 352 175 117 409 494 558 481 98 500 277 440 778 362 
5630 9530 920 680 2510 4910 3890 3120 4480 6010 7810 7380 5100 3690 1360 7060 1750 9490 570 3490 650 4660 8430 6230 9470 9400 1230 2230 3800 9000 5840 9420 8520 6760 100 1030 1660 3990 4140 6140 
96040
